%mem=3800mb
%nprocshared=1
# b3lyp/Def2SVPP opt=(MaxCycles=300) int(grid=ultrafine) IOP(3/36=4) scf=(xqc,tight)

Comment gs min

0 1
H -0.7 -0.7 0.0 
O 0.0 0.0 0.0 
H 0.7 0.7 0.0


