$molecule
   READ coord.xyz
$end

$rem
MEM_TOTAL 12000
MEM_STATIC 2500
JOBTYPE OPT
GEOM_OPT_MAX_CYCLES 200
GEOM_OPT_PRINT 2

SYMMETRY FALSE

!BP86
EXCHANGE B
CORRELATION P86

BASIS 6-31G*
PURECART 1111

SCF_GUESS CORE

XC_GRID 1
MAX_SCF_CYCLES 200

PRINT_ORBITALS FALSE
SCF_PRINT 1
SCF_FINAL_PRINT 1
POP_MULLIKEN 0

$end